\* repex *\
Maximize
OBJ: 98 0 + 20 1 + 30 2 + 50 3 + 20 4 + 34 5 + 43 6 + 21 7 + 32 8 + 54 9
Subject To
_C1: 98 0 + 20 1 + 30 2 + 50 3 + 20 4 + 34 5 + 43 6 + 21 7 + 32 8 + 54 9
 <= 200
_C2: 0 + 1 + 2 + 3 + 4 + 5 + 6 + 7 + 8 + 9 = 6
Binaries
0
1
2
3
4
5
6
7
8
9
End
